# Objective value = 3.0308475104951162e+02
x[0] 1
x[1] 0
x[2] 0
x[3] 1
x[4] 1
x[5] 1
x[6] 1
x[7] 1
x[8] 0
x[9] 1
x[10] 1
x[11] 1
x[12] 0
x[13] 0
x[14] 1
x[15] 1
x[16] 1
x[17] 0
x[18] 0
x[19] 1
x[20] 0
x[21] 1
x[22] 1
x[23] 1
x[24] 0
x[25] 1
x[26] 0
x[27] 0
x[28] 0
x[29] 0
x[30] 0
x[31] 1
x[32] 0
x[33] 0
x[34] 1
x[35] 1
x[36] 0
x[37] 1
x[38] 1
x[39] 1
x[40] 1
x[41] 1
x[42] 0
x[43] 1
x[44] 1
x[45] 1
x[46] 0
x[47] 1
x[48] 1
x[49] 1
x[50] 0
x[51] 9.9999999999999989e-01
x[52] 1
x[53] 1
x[54] 1
x[55] 1
x[56] 1
x[57] 1
x[58] 1
x[59] 0
x[60] 0
x[61] 1
x[62] 0
x[63] 1
x[64] 0
x[65] 1
x[66] 0
x[67] 0
x[68] 1
x[69] 1
x[70] 0
x[71] 0
x[72] 1
x[73] 0
x[74] 0
x[75] 1.0000000000000002e+00
x[76] 0
x[77] 1
x[78] 0
x[79] 1
x[80] 0
x[81] 0
x[82] 1
x[83] 0
x[84] 1
x[85] 0
x[86] 1
x[87] 0
x[88] 1
x[89] 0
x[90] 0
x[91] 1
x[92] 1
x[93] 1
x[94] 1
x[95] 1
x[96] 0
x[97] 1
x[98] 1
x[99] 0
x[100] 1
x[101] 1
x[102] 0
x[103] 0
x[104] 0
x[105] 1
x[106] 1
x[107] 0
x[108] 1
x[109] 1
x[110] 1
x[111] 0
x[112] 1
x[113] 1
x[114] 1
x[115] 1
x[116] 1
x[117] 0
x[118] 0
x[119] 0
x[120] 0
x[121] 0
x[122] 1
x[123] 1
x[124] 0
x[125] 0
x[126] 1
x[127] 0
x[128] 1
x[129] 1
x[130] 1
x[131] 1
x[132] 0
x[133] 0
x[134] 1
x[135] 1
x[136] 0
x[137] 0
x[138] 0
x[139] 0
x[140] 0
x[141] 0
x[142] 1
x[143] 0
x[144] 0
x[145] 1
x[146] 0
x[147] 0
x[148] 0
x[149] 0
x[150] 1
x[151] 1
x[152] 0
x[153] 1
x[154] 1
x[155] 0
x[156] 0
x[157] 1
x[158] 0
x[159] 0
x[160] 0
x[161] 0
x[162] 0
x[163] 1
x[164] 1
x[165] 1
x[166] 0
x[167] 0
x[168] 0
x[169] 1
x[170] 0
x[171] 1
x[172] 1
x[173] 0
x[174] 0
x[175] 0
x[176] 0
x[177] 1
x[178] 1
x[179] 0
x[180] 1
x[181] 0
x[182] 1
x[183] 0
x[184] 0
x[185] 1
x[186] 0
x[187] 0
x[188] 0
x[189] 0
x[190] 0
x[191] 1
x[192] 0
x[193] 1
x[194] 1
x[195] 1
x[196] 0
x[197] 0
x[198] 0
x[199] 0
x[200] 1
x[201] 1
x[202] 1
x[203] 0
x[204] 0
x[205] 0
x[206] 0
x[207] 1
x[208] 9.9999999999999978e-01
x[209] 0
x[210] 1
x[211] 1
x[212] 1
x[213] 1
x[214] 1
x[215] 1
x[216] 0
x[217] 1
x[218] 1
x[219] 1
x[220] 1
x[221] 0
x[222] 1
x[223] 1
x[224] 0
x[225] 0
x[226] 1
x[227] 0
x[228] 0
x[229] 0
x[230] 0
x[231] 1
x[232] 0
x[233] 0
x[234] 0
x[235] 1
x[236] 1
x[237] 0
x[238] 0
x[239] 1
x[240] 0
x[241] 0
x[242] 0
x[243] 1
x[244] 0
x[245] 0
x[246] 0
x[247] 0
x[248] 0
x[249] 0
x[250] 1
x[251] 1
x[252] 1
x[253] 0
x[254] 0
x[255] 0
x[256] 0
x[257] 1
x[258] 1
x[259] 1
x[260] 0
x[261] 1
x[262] 0
x[263] 1
x[264] 1
x[265] 1
x[266] 0
x[267] 0
x[268] 1
x[269] 0
x[270] 0
x[271] 1
x[272] 9.9999999999999978e-01
x[273] 0
x[274] 1
x[275] 0
x[276] 1
x[277] 1
x[278] 1
x[279] 1
x[280] 0
x[281] 0
x[282] 0
x[283] 1.0000000000000002e+00
x[284] 1
x[285] 1
x[286] 0
x[287] 1
x[288] 1
x[289] 0
x[290] 9.9999999999999989e-01
x[291] 0
x[292] 1
x[293] 0
x[294] 1
x[295] 1
x[296] 0
x[297] 0
x[298] 0
x[299] 0
x[300] 0
x[301] 0
x[302] 1
x[303] 0
x[304] 9.9999999999999956e-01
x[305] 1
x[306] 0
x[307] 0
x[308] 0
x[309] 1
x[310] 1
x[311] 0
x[312] 0
x[313] 1
x[314] 0
x[315] 1
x[316] 1
x[317] 0
x[318] 1
x[319] 0
x[320] 0
x[321] 1
x[322] 0
x[323] 1
x[324] 1
x[325] 1
x[326] 1
x[327] 1
x[328] 1
x[329] 0
x[330] 0
x[331] 0
x[332] 1
x[333] 0
x[334] 0
x[335] 1
x[336] 0
x[337] 0
x[338] 0
x[339] 0
x[340] 0
x[341] 0
x[342] 1
x[343] 0
x[344] 1
x[345] 1
x[346] 0
x[347] 0
x[348] 1
x[349] 0
x[350] 0
x[351] 0
x[352] 1
x[353] 1
x[354] 0
x[355] 1
x[356] 9.9999999999999989e-01
x[357] 0
x[358] 1
x[359] 1
x[360] 1
x[361] 0
x[362] 1
x[363] 0
x[364] 0
x[365] 0
x[366] 0
x[367] 1
x[368] 0
x[369] 0
x[370] 1
x[371] 0
x[372] 0
x[373] 0
x[374] 0
x[375] 0
x[376] 0
x[377] 0
x[378] 1
x[379] 1
x[380] 1.0000000000000002e+00
x[381] 0
x[382] 0
x[383] 0
x[384] 1
x[385] 1
x[386] 0
x[387] 1
x[388] 1
x[389] 0
x[390] 0
x[391] 1
x[392] 0
x[393] 9.9999999999999989e-01
x[394] 0
x[395] 1
x[396] 1
x[397] 0
x[398] 0
x[399] 1
x[400] 1
x[401] 0
x[402] 9.9999999999999989e-01
x[403] 0
x[404] 1
x[405] 0
x[406] 0
x[407] 1
x[408] 0
x[409] 0
x[410] 1
x[411] 1
x[412] 0
x[413] 1
x[414] 1
x[415] 0
x[416] 0
x[417] 1
x[418] 0
x[419] 0
x[420] 0
x[421] 1
x[422] 0
x[423] 0
x[424] 0
x[425] 1
x[426] 1.0000000000000002e+00
x[427] 1
x[428] 0
x[429] 1
x[430] 1
x[431] 1
x[432] 0
x[433] 1
x[434] 1
x[435] 1
x[436] 0
x[437] 0
x[438] 0
x[439] 1
x[440] 0
x[441] 0
x[442] 0
x[443] 1
x[444] 1
x[445] 0
x[446] 0
x[447] 0
x[448] 1
x[449] 0
x[450] 0
x[451] 0
x[452] 0
x[453] 1
x[454] 0
x[455] 1
x[456] 1
x[457] 1
x[458] 0
x[459] 0
x[460] 1
x[461] 1
x[462] 0
x[463] 1
x[464] 1
x[465] 1
x[466] 0
x[467] 0
x[468] 0
x[469] 0
x[470] 1
x[471] 1
x[472] 0
x[473] 1
x[474] 1
x[475] 0
x[476] 0
x[477] 1
x[478] 1
x[479] 0
x[480] 0
x[481] 1
x[482] 1
x[483] 1
x[484] 1
x[485] 1
x[486] 0
x[487] 0
x[488] 1
x[489] 1
x[490] 1
x[491] 1.0000000000000002e+00
x[492] 1
x[493] 0
x[494] 1
x[495] 1
x[496] 0
x[497] 1
x[498] 0
x[499] 0
x[500] 0
x[501] 0
x[502] 1
x[503] 0
x[504] 1
x[505] 1
x[506] 0
x[507] 9.9999999999999978e-01
x[508] 0
x[509] 1
x[510] 1
x[511] 1
x[512] 0
x[513] 0
x[514] 0
x[515] 1
x[516] 1
x[517] 0
x[518] 1
x[519] 1
x[520] 0
x[521] 1
x[522] 1
x[523] 0
x[524] 1
x[525] 0
x[526] 0
x[527] 0
x[528] 1
x[529] 1
x[530] 1
x[531] 1
x[532] 0
x[533] 0
x[534] 0
x[535] 1
x[536] 0
x[537] 1
x[538] 0
x[539] 0
x[540] 0
x[541] 0
x[542] 1
x[543] 1
x[544] 1
x[545] 1
x[546] 9.9999999999999989e-01
x[547] 0
x[548] 0
x[549] 0
x[550] 0
x[551] 0
x[552] 1
x[553] 0
x[554] 1
x[555] 0
x[556] 1
x[557] 0
x[558] 0
x[559] 0
x[560] 1
x[561] 0
x[562] 0
x[563] 0
x[564] 1
x[565] 0
x[566] 1
x[567] 0
x[568] 1
x[569] 1
x[570] 0
x[571] 1
x[572] 1
x[573] 0
x[574] 1
x[575] 0
x[576] 1
x[577] 0
x[578] 0
x[579] 0
x[580] 0
x[581] 1
x[582] 1
x[583] 1
x[584] 1
x[585] 1
x[586] 1
x[587] 1
x[588] 0
x[589] 1
x[590] 0
x[591] 1
x[592] 1
x[593] 0
x[594] 1
x[595] 0
x[596] 1
x[597] 0
x[598] 1
x[599] 1
x[600] 1
x[601] 0
x[602] 0
x[603] 0
x[604] 1
x[605] 0
x[606] 0
x[607] 0
x[608] 0
x[609] 0
x[610] 9.9999999999999967e-01
x[611] 1
x[612] 0
x[613] 1
x[614] 0
x[615] 1
x[616] 0
x[617] 1
x[618] 0
x[619] 1
x[620] 1
x[621] 0
x[622] 1
x[623] 1
x[624] 0
x[625] 1
x[626] 1
x[627] 0
x[628] 0
x[629] 1
x[630] 0
x[631] 0
x[632] 1
x[633] 0
x[634] 1
x[635] 1
x[636] 0
x[637] 0
x[638] 0
x[639] 1
x[640] 1
x[641] 1
x[642] 0
x[643] 1.0000000000000002e+00
x[644] 0
x[645] 0
x[646] 0
x[647] 0
x[648] 1
x[649] 1
x[650] 1
x[651] 1
x[652] 0
x[653] 1
x[654] 0
x[655] 0
x[656] 1
x[657] 0
x[658] 0
x[659] 1
x[660] 0
x[661] 0
x[662] 1
x[663] 1
x[664] 0
x[665] 1
x[666] 0
x[667] 1
x[668] 0
x[669] 0
x[670] 1
x[671] 1
x[672] 0
x[673] 1
x[674] 0
x[675] 0
x[676] 0
x[677] 1
x[678] 0
x[679] 1
x[680] 0
x[681] 1
x[682] 0
x[683] 1
x[684] 0
x[685] 0
x[686] 0
x[687] 0
x[688] 0
x[689] 1
x[690] 0
x[691] 0
x[692] 0
x[693] 0
x[694] 0
x[695] 1
x[696] 1
x[697] 1
x[698] 1
x[699] 0
x[700] 0
x[701] 0
x[702] 1
x[703] 1
x[704] 0
x[705] 0
x[706] 0
x[707] 1
x[708] 1
x[709] 1
x[710] 0
x[711] 1
x[712] 1
x[713] 9.9999999999999967e-01
x[714] 0
x[715] 1
x[716] 1
x[717] 0
x[718] 1
x[719] 1
x[720] 1
x[721] 0
x[722] 0
x[723] 1
x[724] 1
x[725] 1
x[726] 1
x[727] 1
x[728] 0
x[729] 0
x[730] 1
x[731] 1
x[732] 0
x[733] 0
x[734] 0
x[735] 0
x[736] 0
x[737] 1
x[738] 1
x[739] 0
x[740] 0
x[741] 0
x[742] 0
x[743] 0
x[744] 0
x[745] 1
x[746] 9.9999999999999978e-01
x[747] 1.0000000000000002e+00
x[748] 1
x[749] 0
x[750] 1
x[751] 0
x[752] 0
x[753] 0
x[754] 0
x[755] 0
x[756] 1
x[757] 1
x[758] 1
x[759] 1
x[760] 0
x[761] 0
x[762] 1
x[763] 0
x[764] 0
x[765] 0
x[766] 0
x[767] 0
x[768] 1
x[769] 9.9999999999999889e-01
x[770] 0
x[771] 1
x[772] 1
x[773] 0
x[774] 1
x[775] 0
x[776] 0
x[777] 1
x[778] 0
x[779] 9.9999999999999989e-01
x[780] 0
x[781] 0
x[782] 1
x[783] 1
x[784] 0
x[785] 0
x[786] 0
x[787] 1
x[788] 1
x[789] 1
x[790] 1
x[791] 1
x[792] 0
x[793] 0
x[794] 1
x[795] 0
x[796] 1
x[797] 1
x[798] 0
x[799] 0
x[800] 0
x[801] 1
x[802] 1
x[803] 1
x[804] 0
x[805] 1
x[806] 0
x[807] 1
x[808] 0
x[809] 0
x[810] 0
x[811] 1
x[812] 1
x[813] 0
x[814] 0
x[815] 0
x[816] 0
x[817] 1
x[818] 0
x[819] 1
x[820] 1
x[821] 1
x[822] 0
x[823] 0
x[824] 0
x[825] 1
x[826] 0
x[827] 0
x[828] 0
x[829] 0
x[830] 0
x[831] 0
x[832] 1
x[833] 0
x[834] 0
x[835] 0
x[836] 1
x[837] 1
x[838] 0
x[839] 0
x[840] 1
x[841] 1
x[842] 0
x[843] 1
x[844] 1
x[845] 1
x[846] 0
x[847] 0
x[848] 0
x[849] 0
x[850] 1
x[851] 0
x[852] 1
x[853] 0
x[854] 0
x[855] 1
x[856] 0
x[857] 0
x[858] 1
x[859] 1
x[860] 0
x[861] 1
x[862] 0
x[863] 1.0000000000000002e+00
x[864] 1
x[865] 0
x[866] 1
x[867] 1
x[868] 0
x[869] 1
x[870] 1
x[871] 0
x[872] 0
x[873] 1
x[874] 1
x[875] 1
x[876] 0
x[877] 0
x[878] 0
x[879] 0
x[880] 0
x[881] 0
x[882] 0
x[883] 1
x[884] 1
x[885] 0
x[886] 1
x[887] 1
x[888] 1
x[889] 0
x[890] 1
x[891] 0
x[892] 1
x[893] 0
x[894] 0
x[895] 0
x[896] 0
x[897] 1
x[898] 0
x[899] 1
x[900] 1
x[901] 1
x[902] 1
x[903] 1
x[904] 1
x[905] 1
x[906] 0
x[907] 1
x[908] 0
x[909] 0
x[910] 0
x[911] 0
x[912] 1
x[913] 1
x[914] 0
x[915] 1
x[916] 1
x[917] 1
x[918] 0
x[919] 0
x[920] 0
x[921] 1
x[922] 0
x[923] 1
x[924] 0
x[925] 1
x[926] 0
x[927] 9.9999999999999989e-01
x[928] 1
x[929] 1
x[930] 1
x[931] 1
x[932] 0
x[933] 0
x[934] 0
x[935] 1
x[936] 0
x[937] 0
x[938] 0
x[939] 1
x[940] 0
x[941] 1
x[942] 0
x[943] 1
x[944] 0
x[945] 0
x[946] 1
x[947] 0
x[948] 1
x[949] 1
x[950] 0
x[951] 1
x[952] 1
x[953] 0
x[954] 1
x[955] 1
x[956] 0
x[957] 1
x[958] 0
x[959] 9.9999999999999978e-01
x[960] 0
x[961] 1
x[962] 0
x[963] 1
x[964] 0
x[965] 0
x[966] 1
x[967] 1.0000000000000002e+00
x[968] 1
x[969] 0
x[970] 1
x[971] 0
x[972] 0
x[973] 0
x[974] 0
x[975] 1
x[976] 0
x[977] 1
x[978] 1
x[979] 1
x[980] 1
x[981] 0
x[982] 1
x[983] 1
x[984] 0
x[985] 0
x[986] 0
x[987] 0
x[988] 0
x[989] 1
x[990] 0
x[991] 0
x[992] 0
x[993] 1
x[994] 1
x[995] 1
x[996] 0
x[997] 0
x[998] 0
x[999] 0
